p cnf 119 1109
-1 -92 0
-2 -93 0
-3 -94 0
-4 -95 0
-5 -96 0
-6 -97 0
-7 -98 0
-1 -78 0
-2 -79 0
-3 -80 0
-4 -81 0
-5 -82 0
-6 -83 0
-7 -84 0
-1 -71 0
-2 -72 0
-3 -73 0
-4 -74 0
-5 -75 0
-6 -76 0
-7 -77 0
-1 -36 0
-2 -37 0
-3 -38 0
-4 -39 0
-5 -40 0
-6 -41 0
-7 -42 0
-1 -106 0
-2 -107 0
-3 -108 0
-4 -109 0
-5 -110 0
-6 -111 0
-7 -112 0
-1 -85 0
-2 -86 0
-3 -87 0
-4 -88 0
-5 -89 0
-6 -90 0
-7 -91 0
-1 -113 0
-2 -114 0
-3 -115 0
-4 -116 0
-5 -117 0
-6 -118 0
-7 -119 0
-1 -43 0
-2 -44 0
-3 -45 0
-4 -46 0
-5 -47 0
-6 -48 0
-7 -49 0
-1 -57 0
-2 -58 0
-3 -59 0
-4 -60 0
-5 -61 0
-6 -62 0
-7 -63 0
-1 -64 0
-2 -65 0
-3 -66 0
-4 -67 0
-5 -68 0
-6 -69 0
-7 -70 0
-1 -99 0
-2 -100 0
-3 -101 0
-4 -102 0
-5 -103 0
-6 -104 0
-7 -105 0
-1 -15 0
-2 -16 0
-3 -17 0
-4 -18 0
-5 -19 0
-6 -20 0
-7 -21 0
-1 -50 0
-2 -51 0
-3 -52 0
-4 -53 0
-5 -54 0
-6 -55 0
-7 -56 0
-1 -29 0
-2 -30 0
-3 -31 0
-4 -32 0
-5 -33 0
-6 -34 0
-7 -35 0
-8 -92 0
-9 -93 0
-10 -94 0
-11 -95 0
-12 -96 0
-13 -97 0
-14 -98 0
-8 -78 0
-9 -79 0
-10 -80 0
-11 -81 0
-12 -82 0
-13 -83 0
-14 -84 0
-8 -71 0
-9 -72 0
-10 -73 0
-11 -74 0
-12 -75 0
-13 -76 0
-14 -77 0
-8 -36 0
-9 -37 0
-10 -38 0
-11 -39 0
-12 -40 0
-13 -41 0
-14 -42 0
-8 -106 0
-9 -107 0
-10 -108 0
-11 -109 0
-12 -110 0
-13 -111 0
-14 -112 0
-8 -85 0
-9 -86 0
-10 -87 0
-11 -88 0
-12 -89 0
-13 -90 0
-14 -91 0
-8 -113 0
-9 -114 0
-10 -115 0
-11 -116 0
-12 -117 0
-13 -118 0
-14 -119 0
-8 -43 0
-9 -44 0
-10 -45 0
-11 -46 0
-12 -47 0
-13 -48 0
-14 -49 0
-8 -57 0
-9 -58 0
-10 -59 0
-11 -60 0
-12 -61 0
-13 -62 0
-14 -63 0
-8 -22 0
-9 -23 0
-10 -24 0
-11 -25 0
-12 -26 0
-13 -27 0
-14 -28 0
-8 -99 0
-9 -100 0
-10 -101 0
-11 -102 0
-12 -103 0
-13 -104 0
-14 -105 0
-8 -15 0
-9 -16 0
-10 -17 0
-11 -18 0
-12 -19 0
-13 -20 0
-14 -21 0
-15 -92 0
-16 -93 0
-17 -94 0
-18 -95 0
-19 -96 0
-20 -97 0
-21 -98 0
-15 -78 0
-16 -79 0
-17 -80 0
-18 -81 0
-19 -82 0
-20 -83 0
-21 -84 0
-15 -36 0
-16 -37 0
-17 -38 0
-18 -39 0
-19 -40 0
-20 -41 0
-21 -42 0
-15 -106 0
-16 -107 0
-17 -108 0
-18 -109 0
-19 -110 0
-20 -111 0
-21 -112 0
-15 -113 0
-16 -114 0
-17 -115 0
-18 -116 0
-19 -117 0
-20 -118 0
-21 -119 0
-15 -43 0
-16 -44 0
-17 -45 0
-18 -46 0
-19 -47 0
-20 -48 0
-21 -49 0
-15 -57 0
-16 -58 0
-17 -59 0
-18 -60 0
-19 -61 0
-20 -62 0
-21 -63 0
-15 -99 0
-16 -100 0
-17 -101 0
-18 -102 0
-19 -103 0
-20 -104 0
-21 -105 0
-15 -50 0
-16 -51 0
-17 -52 0
-18 -53 0
-19 -54 0
-20 -55 0
-21 -56 0
-15 -29 0
-16 -30 0
-17 -31 0
-18 -32 0
-19 -33 0
-20 -34 0
-21 -35 0
-22 -92 0
-23 -93 0
-24 -94 0
-25 -95 0
-26 -96 0
-27 -97 0
-28 -98 0
-22 -78 0
-23 -79 0
-24 -80 0
-25 -81 0
-26 -82 0
-27 -83 0
-28 -84 0
-22 -71 0
-23 -72 0
-24 -73 0
-25 -74 0
-26 -75 0
-27 -76 0
-28 -77 0
-22 -85 0
-23 -86 0
-24 -87 0
-25 -88 0
-26 -89 0
-27 -90 0
-28 -91 0
-22 -113 0
-23 -114 0
-24 -115 0
-25 -116 0
-26 -117 0
-27 -118 0
-28 -119 0
-22 -43 0
-23 -44 0
-24 -45 0
-25 -46 0
-26 -47 0
-27 -48 0
-28 -49 0
-22 -57 0
-23 -58 0
-24 -59 0
-25 -60 0
-26 -61 0
-27 -62 0
-28 -63 0
-22 -64 0
-23 -65 0
-24 -66 0
-25 -67 0
-26 -68 0
-27 -69 0
-28 -70 0
-22 -99 0
-23 -100 0
-24 -101 0
-25 -102 0
-26 -103 0
-27 -104 0
-28 -105 0
-22 -50 0
-23 -51 0
-24 -52 0
-25 -53 0
-26 -54 0
-27 -55 0
-28 -56 0
-22 -29 0
-23 -30 0
-24 -31 0
-25 -32 0
-26 -33 0
-27 -34 0
-28 -35 0
-29 -92 0
-30 -93 0
-31 -94 0
-32 -95 0
-33 -96 0
-34 -97 0
-35 -98 0
-29 -36 0
-30 -37 0
-31 -38 0
-32 -39 0
-33 -40 0
-34 -41 0
-35 -42 0
-29 -85 0
-30 -86 0
-31 -87 0
-32 -88 0
-33 -89 0
-34 -90 0
-35 -91 0
-29 -113 0
-30 -114 0
-31 -115 0
-32 -116 0
-33 -117 0
-34 -118 0
-35 -119 0
-29 -43 0
-30 -44 0
-31 -45 0
-32 -46 0
-33 -47 0
-34 -48 0
-35 -49 0
-29 -57 0
-30 -58 0
-31 -59 0
-32 -60 0
-33 -61 0
-34 -62 0
-35 -63 0
-29 -64 0
-30 -65 0
-31 -66 0
-32 -67 0
-33 -68 0
-34 -69 0
-35 -70 0
-29 -99 0
-30 -100 0
-31 -101 0
-32 -102 0
-33 -103 0
-34 -104 0
-35 -105 0
-29 -50 0
-30 -51 0
-31 -52 0
-32 -53 0
-33 -54 0
-34 -55 0
-35 -56 0
-36 -92 0
-37 -93 0
-38 -94 0
-39 -95 0
-40 -96 0
-41 -97 0
-42 -98 0
-36 -78 0
-37 -79 0
-38 -80 0
-39 -81 0
-40 -82 0
-41 -83 0
-42 -84 0
-36 -71 0
-37 -72 0
-38 -73 0
-39 -74 0
-40 -75 0
-41 -76 0
-42 -77 0
-36 -106 0
-37 -107 0
-38 -108 0
-39 -109 0
-40 -110 0
-41 -111 0
-42 -112 0
-36 -85 0
-37 -86 0
-38 -87 0
-39 -88 0
-40 -89 0
-41 -90 0
-42 -91 0
-36 -43 0
-37 -44 0
-38 -45 0
-39 -46 0
-40 -47 0
-41 -48 0
-42 -49 0
-36 -57 0
-37 -58 0
-38 -59 0
-39 -60 0
-40 -61 0
-41 -62 0
-42 -63 0
-36 -50 0
-37 -51 0
-38 -52 0
-39 -53 0
-40 -54 0
-41 -55 0
-42 -56 0
-43 -78 0
-44 -79 0
-45 -80 0
-46 -81 0
-47 -82 0
-48 -83 0
-49 -84 0
-43 -71 0
-44 -72 0
-45 -73 0
-46 -74 0
-47 -75 0
-48 -76 0
-49 -77 0
-43 -106 0
-44 -107 0
-45 -108 0
-46 -109 0
-47 -110 0
-48 -111 0
-49 -112 0
-43 -113 0
-44 -114 0
-45 -115 0
-46 -116 0
-47 -117 0
-48 -118 0
-49 -119 0
-43 -57 0
-44 -58 0
-45 -59 0
-46 -60 0
-47 -61 0
-48 -62 0
-49 -63 0
-43 -99 0
-44 -100 0
-45 -101 0
-46 -102 0
-47 -103 0
-48 -104 0
-49 -105 0
-50 -92 0
-51 -93 0
-52 -94 0
-53 -95 0
-54 -96 0
-55 -97 0
-56 -98 0
-50 -78 0
-51 -79 0
-52 -80 0
-53 -81 0
-54 -82 0
-55 -83 0
-56 -84 0
-50 -71 0
-51 -72 0
-52 -73 0
-53 -74 0
-54 -75 0
-55 -76 0
-56 -77 0
-50 -85 0
-51 -86 0
-52 -87 0
-53 -88 0
-54 -89 0
-55 -90 0
-56 -91 0
-50 -57 0
-51 -58 0
-52 -59 0
-53 -60 0
-54 -61 0
-55 -62 0
-56 -63 0
-50 -64 0
-51 -65 0
-52 -66 0
-53 -67 0
-54 -68 0
-55 -69 0
-56 -70 0
-50 -99 0
-51 -100 0
-52 -101 0
-53 -102 0
-54 -103 0
-55 -104 0
-56 -105 0
-57 -92 0
-58 -93 0
-59 -94 0
-60 -95 0
-61 -96 0
-62 -97 0
-63 -98 0
-57 -71 0
-58 -72 0
-59 -73 0
-60 -74 0
-61 -75 0
-62 -76 0
-63 -77 0
-57 -106 0
-58 -107 0
-59 -108 0
-60 -109 0
-61 -110 0
-62 -111 0
-63 -112 0
-57 -113 0
-58 -114 0
-59 -115 0
-60 -116 0
-61 -117 0
-62 -118 0
-63 -119 0
-57 -99 0
-58 -100 0
-59 -101 0
-60 -102 0
-61 -103 0
-62 -104 0
-63 -105 0
-57 -64 0
-58 -65 0
-59 -66 0
-60 -67 0
-61 -68 0
-62 -69 0
-63 -70 0
-64 -92 0
-65 -93 0
-66 -94 0
-67 -95 0
-68 -96 0
-69 -97 0
-70 -98 0
-64 -71 0
-65 -72 0
-66 -73 0
-67 -74 0
-68 -75 0
-69 -76 0
-70 -77 0
-64 -85 0
-65 -86 0
-66 -87 0
-67 -88 0
-68 -89 0
-69 -90 0
-70 -91 0
-64 -113 0
-65 -114 0
-66 -115 0
-67 -116 0
-68 -117 0
-69 -118 0
-70 -119 0
-64 -99 0
-65 -100 0
-66 -101 0
-67 -102 0
-68 -103 0
-69 -104 0
-70 -105 0
-71 -92 0
-72 -93 0
-73 -94 0
-74 -95 0
-75 -96 0
-76 -97 0
-77 -98 0
-71 -78 0
-72 -79 0
-73 -80 0
-74 -81 0
-75 -82 0
-76 -83 0
-77 -84 0
-71 -85 0
-72 -86 0
-73 -87 0
-74 -88 0
-75 -89 0
-76 -90 0
-77 -91 0
-71 -113 0
-72 -114 0
-73 -115 0
-74 -116 0
-75 -117 0
-76 -118 0
-77 -119 0
-71 -106 0
-72 -107 0
-73 -108 0
-74 -109 0
-75 -110 0
-76 -111 0
-77 -112 0
-71 -99 0
-72 -100 0
-73 -101 0
-74 -102 0
-75 -103 0
-76 -104 0
-77 -105 0
-78 -92 0
-79 -93 0
-80 -94 0
-81 -95 0
-82 -96 0
-83 -97 0
-84 -98 0
-78 -106 0
-79 -107 0
-80 -108 0
-81 -109 0
-82 -110 0
-83 -111 0
-84 -112 0
-78 -85 0
-79 -86 0
-80 -87 0
-81 -88 0
-82 -89 0
-83 -90 0
-84 -91 0
-78 -113 0
-79 -114 0
-80 -115 0
-81 -116 0
-82 -117 0
-83 -118 0
-84 -119 0
-85 -92 0
-86 -93 0
-87 -94 0
-88 -95 0
-89 -96 0
-90 -97 0
-91 -98 0
-85 -113 0
-86 -114 0
-87 -115 0
-88 -116 0
-89 -117 0
-90 -118 0
-91 -119 0
-85 -99 0
-86 -100 0
-87 -101 0
-88 -102 0
-89 -103 0
-90 -104 0
-91 -105 0
-92 -106 0
-93 -107 0
-94 -108 0
-95 -109 0
-96 -110 0
-97 -111 0
-98 -112 0
-92 -113 0
-93 -114 0
-94 -115 0
-95 -116 0
-96 -117 0
-97 -118 0
-98 -119 0
-99 -113 0
-100 -114 0
-101 -115 0
-102 -116 0
-103 -117 0
-104 -118 0
-105 -119 0
-106 -113 0
-107 -114 0
-108 -115 0
-109 -116 0
-110 -117 0
-111 -118 0
-112 -119 0
1 2 3 4 5 6 7 0
-1 -2 0
-1 -3 0
-1 -4 0
-1 -5 0
-1 -6 0
-1 -7 0
-2 -3 0
-2 -4 0
-2 -5 0
-2 -6 0
-2 -7 0
-3 -4 0
-3 -5 0
-3 -6 0
-3 -7 0
-4 -5 0
-4 -6 0
-4 -7 0
-5 -6 0
-5 -7 0
-6 -7 0
8 9 10 11 12 13 14 0
-8 -9 0
-8 -10 0
-8 -11 0
-8 -12 0
-8 -13 0
-8 -14 0
-9 -10 0
-9 -11 0
-9 -12 0
-9 -13 0
-9 -14 0
-10 -11 0
-10 -12 0
-10 -13 0
-10 -14 0
-11 -12 0
-11 -13 0
-11 -14 0
-12 -13 0
-12 -14 0
-13 -14 0
15 16 17 18 19 20 21 0
-15 -16 0
-15 -17 0
-15 -18 0
-15 -19 0
-15 -20 0
-15 -21 0
-16 -17 0
-16 -18 0
-16 -19 0
-16 -20 0
-16 -21 0
-17 -18 0
-17 -19 0
-17 -20 0
-17 -21 0
-18 -19 0
-18 -20 0
-18 -21 0
-19 -20 0
-19 -21 0
-20 -21 0
22 23 24 25 26 27 28 0
-22 -23 0
-22 -24 0
-22 -25 0
-22 -26 0
-22 -27 0
-22 -28 0
-23 -24 0
-23 -25 0
-23 -26 0
-23 -27 0
-23 -28 0
-24 -25 0
-24 -26 0
-24 -27 0
-24 -28 0
-25 -26 0
-25 -27 0
-25 -28 0
-26 -27 0
-26 -28 0
-27 -28 0
29 30 31 32 33 34 35 0
-29 -30 0
-29 -31 0
-29 -32 0
-29 -33 0
-29 -34 0
-29 -35 0
-30 -31 0
-30 -32 0
-30 -33 0
-30 -34 0
-30 -35 0
-31 -32 0
-31 -33 0
-31 -34 0
-31 -35 0
-32 -33 0
-32 -34 0
-32 -35 0
-33 -34 0
-33 -35 0
-34 -35 0
36 37 38 39 40 41 42 0
-36 -37 0
-36 -38 0
-36 -39 0
-36 -40 0
-36 -41 0
-36 -42 0
-37 -38 0
-37 -39 0
-37 -40 0
-37 -41 0
-37 -42 0
-38 -39 0
-38 -40 0
-38 -41 0
-38 -42 0
-39 -40 0
-39 -41 0
-39 -42 0
-40 -41 0
-40 -42 0
-41 -42 0
43 44 45 46 47 48 49 0
-43 -44 0
-43 -45 0
-43 -46 0
-43 -47 0
-43 -48 0
-43 -49 0
-44 -45 0
-44 -46 0
-44 -47 0
-44 -48 0
-44 -49 0
-45 -46 0
-45 -47 0
-45 -48 0
-45 -49 0
-46 -47 0
-46 -48 0
-46 -49 0
-47 -48 0
-47 -49 0
-48 -49 0
50 51 52 53 54 55 56 0
-50 -51 0
-50 -52 0
-50 -53 0
-50 -54 0
-50 -55 0
-50 -56 0
-51 -52 0
-51 -53 0
-51 -54 0
-51 -55 0
-51 -56 0
-52 -53 0
-52 -54 0
-52 -55 0
-52 -56 0
-53 -54 0
-53 -55 0
-53 -56 0
-54 -55 0
-54 -56 0
-55 -56 0
57 58 59 60 61 62 63 0
-57 -58 0
-57 -59 0
-57 -60 0
-57 -61 0
-57 -62 0
-57 -63 0
-58 -59 0
-58 -60 0
-58 -61 0
-58 -62 0
-58 -63 0
-59 -60 0
-59 -61 0
-59 -62 0
-59 -63 0
-60 -61 0
-60 -62 0
-60 -63 0
-61 -62 0
-61 -63 0
-62 -63 0
64 65 66 67 68 69 70 0
-64 -65 0
-64 -66 0
-64 -67 0
-64 -68 0
-64 -69 0
-64 -70 0
-65 -66 0
-65 -67 0
-65 -68 0
-65 -69 0
-65 -70 0
-66 -67 0
-66 -68 0
-66 -69 0
-66 -70 0
-67 -68 0
-67 -69 0
-67 -70 0
-68 -69 0
-68 -70 0
-69 -70 0
71 72 73 74 75 76 77 0
-71 -72 0
-71 -73 0
-71 -74 0
-71 -75 0
-71 -76 0
-71 -77 0
-72 -73 0
-72 -74 0
-72 -75 0
-72 -76 0
-72 -77 0
-73 -74 0
-73 -75 0
-73 -76 0
-73 -77 0
-74 -75 0
-74 -76 0
-74 -77 0
-75 -76 0
-75 -77 0
-76 -77 0
78 79 80 81 82 83 84 0
-78 -79 0
-78 -80 0
-78 -81 0
-78 -82 0
-78 -83 0
-78 -84 0
-79 -80 0
-79 -81 0
-79 -82 0
-79 -83 0
-79 -84 0
-80 -81 0
-80 -82 0
-80 -83 0
-80 -84 0
-81 -82 0
-81 -83 0
-81 -84 0
-82 -83 0
-82 -84 0
-83 -84 0
85 86 87 88 89 90 91 0
-85 -86 0
-85 -87 0
-85 -88 0
-85 -89 0
-85 -90 0
-85 -91 0
-86 -87 0
-86 -88 0
-86 -89 0
-86 -90 0
-86 -91 0
-87 -88 0
-87 -89 0
-87 -90 0
-87 -91 0
-88 -89 0
-88 -90 0
-88 -91 0
-89 -90 0
-89 -91 0
-90 -91 0
92 93 94 95 96 97 98 0
-92 -93 0
-92 -94 0
-92 -95 0
-92 -96 0
-92 -97 0
-92 -98 0
-93 -94 0
-93 -95 0
-93 -96 0
-93 -97 0
-93 -98 0
-94 -95 0
-94 -96 0
-94 -97 0
-94 -98 0
-95 -96 0
-95 -97 0
-95 -98 0
-96 -97 0
-96 -98 0
-97 -98 0
99 100 101 102 103 104 105 0
-99 -100 0
-99 -101 0
-99 -102 0
-99 -103 0
-99 -104 0
-99 -105 0
-100 -101 0
-100 -102 0
-100 -103 0
-100 -104 0
-100 -105 0
-101 -102 0
-101 -103 0
-101 -104 0
-101 -105 0
-102 -103 0
-102 -104 0
-102 -105 0
-103 -104 0
-103 -105 0
-104 -105 0
106 107 108 109 110 111 112 0
-106 -107 0
-106 -108 0
-106 -109 0
-106 -110 0
-106 -111 0
-106 -112 0
-107 -108 0
-107 -109 0
-107 -110 0
-107 -111 0
-107 -112 0
-108 -109 0
-108 -110 0
-108 -111 0
-108 -112 0
-109 -110 0
-109 -111 0
-109 -112 0
-110 -111 0
-110 -112 0
-111 -112 0
113 114 115 116 117 118 119 0
-113 -114 0
-113 -115 0
-113 -116 0
-113 -117 0
-113 -118 0
-113 -119 0
-114 -115 0
-114 -116 0
-114 -117 0
-114 -118 0
-114 -119 0
-115 -116 0
-115 -117 0
-115 -118 0
-115 -119 0
-116 -117 0
-116 -118 0
-116 -119 0
-117 -118 0
-117 -119 0
-118 -119 0
